certificates/rado_a5_c72_N15.cnf
c Rad2 upper bound instance: x1 + 5*x2 - x3 = 72, interval [1,15]
p cnf 15 72
1 4 15 0
-1 -4 -15 0
2 5 15 0
-2 -5 -15 0
1 3 14 0
-1 -3 -14 0
3 6 15 0
-3 -6 -15 0
2 4 14 0
-2 -4 -14 0
4 7 15 0
-4 -7 -15 0
3 5 14 0
-3 -5 -14 0
5 8 15 0
-5 -8 -15 0
4 6 14 0
-4 -6 -14 0
6 9 15 0
-6 -9 -15 0
5 7 14 0
-5 -7 -14 0
7 10 15 0
-7 -10 -15 0
1 8 13 0
-1 -8 -13 0
6 8 14 0
-6 -8 -14 0
8 11 15 0
-8 -11 -15 0
2 9 13 0
-2 -9 -13 0
7 9 14 0
-7 -9 -14 0
9 12 15 0
-9 -12 -15 0
3 10 13 0
-3 -10 -13 0
8 10 14 0
-8 -10 -14 0
10 13 15 0
-10 -13 -15 0
4 11 13 0
-4 -11 -13 0
9 11 14 0
-9 -11 -14 0
11 14 15 0
-11 -14 -15 0
5 12 13 0
-5 -12 -13 0
10 12 14 0
-10 -12 -14 0
12 15 0
-12 -15 0
1 12 13 0
-1 -12 -13 0
6 13 0
-6 -13 0
11 13 14 0
-11 -13 -14 0
2 12 14 0
-2 -12 -14 0
7 13 14 0
-7 -13 -14 0
12 14 0
-12 -14 0
3 12 15 0
-3 -12 -15 0
8 13 15 0
-8 -13 -15 0
13 14 15 0
-13 -14 -15 0
