certificates/rado_a5_c72_N15.drat
-15 0
12 0
-14 0
11 0
13 0
-6 0
-1 0
-5 0
-4 0
3 0
0
